p tdp 180 332
1 11
1 2
2 12
2 3
3 13
3 4
4 14
4 5
5 15
5 6
6 16
6 7
7 17
7 8
8 18
8 9
9 19
9 10
10 20
11 21
11 12
12 22
12 13
13 23
13 14
14 24
14 15
15 25
15 16
16 26
16 17
17 27
17 18
18 28
18 19
19 29
19 20
20 30
21 31
21 22
22 32
22 23
23 33
23 24
24 34
24 25
25 35
25 26
26 36
26 27
27 37
27 28
28 38
28 29
29 39
29 30
30 40
31 41
31 32
32 42
32 33
33 43
33 34
34 44
34 35
35 45
35 36
36 46
36 37
37 47
37 38
38 48
38 39
39 49
39 40
40 50
41 51
41 42
42 52
42 43
43 53
43 44
44 54
44 45
45 55
45 46
46 56
46 47
47 57
47 48
48 58
48 49
49 59
49 50
50 60
51 61
51 52
52 62
52 53
53 63
53 54
54 64
54 55
55 65
55 56
56 66
56 57
57 67
57 58
58 68
58 59
59 69
59 60
60 70
61 71
61 62
62 72
62 63
63 73
63 64
64 74
64 65
65 75
65 66
66 76
66 67
67 77
67 68
68 78
68 69
69 79
69 70
70 80
71 81
71 72
72 82
72 73
73 83
73 74
74 84
74 75
75 85
75 76
76 86
76 77
77 87
77 78
78 88
78 79
79 89
79 80
80 90
81 91
81 82
82 92
82 83
83 93
83 84
84 94
84 85
85 95
85 86
86 96
86 87
87 97
87 88
88 98
88 89
89 99
89 90
90 100
91 101
91 92
92 102
92 93
93 103
93 94
94 104
94 95
95 105
95 96
96 106
96 97
97 107
97 98
98 108
98 99
99 109
99 100
100 110
101 111
101 102
102 112
102 103
103 113
103 104
104 114
104 105
105 115
105 106
106 116
106 107
107 117
107 108
108 118
108 109
109 119
109 110
110 120
111 121
111 112
112 122
112 113
113 123
113 114
114 124
114 115
115 125
115 116
116 126
116 117
117 127
117 118
118 128
118 119
119 129
119 120
120 130
121 131
121 122
122 132
122 123
123 133
123 124
124 134
124 125
125 135
125 126
126 136
126 127
127 137
127 128
128 138
128 129
129 139
129 130
130 140
131 141
131 132
132 142
132 133
133 143
133 134
134 144
134 135
135 145
135 136
136 146
136 137
137 147
137 138
138 148
138 139
139 149
139 140
140 150
141 151
141 142
142 152
142 143
143 153
143 144
144 154
144 145
145 155
145 146
146 156
146 147
147 157
147 148
148 158
148 149
149 159
149 150
150 160
151 161
151 152
152 162
152 153
153 163
153 154
154 164
154 155
155 165
155 156
156 166
156 157
157 167
157 158
158 168
158 159
159 169
159 160
160 170
161 171
161 162
162 172
162 163
163 173
163 164
164 174
164 165
165 175
165 166
166 176
166 167
167 177
167 168
168 178
168 169
169 179
169 170
170 180
171 172
172 173
173 174
174 175
175 176
176 177
177 178
178 179
179 180
